Total weight: 1280.7
Route 1: 0 72 75 23 67 39 56 26 0 
Route 2: 0 7 82 8 45 17 0 
Route 3: 0 2 15 57 87 97 37 100 93 0 
Route 4: 0 27 31 88 62 11 63 90 32 10 70 1 0 
Route 5: 0 12 80 24 29 0 
Route 6: 0 69 30 51 81 78 35 34 79 0 
Route 7: 0 14 38 86 16 42 43 44 91 0 
Route 8: 0 28 76 3 68 77 50 0 
Route 9: 0 64 47 36 49 19 48 46 0 
Route 10: 0 53 40 4 25 55 54 0 
Route 11: 0 60 5 84 94 13 58 0 
Route 12: 0 33 9 71 65 66 20 0 
Route 13: 0 21 73 41 22 74 0 
Route 14: 0 52 18 83 0 
Route 15: 0 95 59 92 98 85 61 99 96 6 89 0 
